Route #1: 1 49 37 53 31 39 51 8 30 1
Route #2: 1 18 63 21 14 27 5 1
Route #3: 1 15 9 36 28 7 42 40 46 1
Route #4: 1 29 58 33 48 12 35 45 52 22 1
Route #5: 1 32 23 59 25 24 62 1
Route #6: 1 41 57 26 16 50 54 2 1
Route #7: 1 44 60 11 19 4 43 6 20 1
Route #8: 1 3 10 13 17 38 1
Route #9: 1 47 61 55 1
Route #10: 1 56 34 1
cost 1601
